solution status: gap limit reached
objective value:                     74104.1236899999
y#1                                                 1 	(obj:5700)
y#7                                                 1 	(obj:5700)
y#11                                                1 	(obj:5700)
y#14                                                1 	(obj:5700)
y#22                                                1 	(obj:5700)
y#25                                                1 	(obj:5700)
y#26                                                1 	(obj:5700)
y#28                                                1 	(obj:5700)
y#29                                                1 	(obj:5700)
y#33                                                1 	(obj:5700)
y#38                                                1 	(obj:5700)
y#39                                                1 	(obj:5700)
y#40                                                1 	(obj:5700)
x#1#38                                              1 	(obj:0.00595)
x#2#33                                              1 	(obj:0.07871)
x#3#1                                               1 	(obj:0.00969)
x#4#7                                               1 	(obj:0.00442)
x#5#1                                               1 	(obj:0.04403)
x#6#33                                              1 	(obj:0.0204)
x#7#39                                              1 	(obj:0.01241)
x#8#33                                              1 	(obj:0.03485)
x#9#22                                              1 	(obj:0.00782)
x#10#40                                             1 	(obj:0.01581)
x#11#25                                             1 	(obj:0.03145)
x#12#29                                             1 	(obj:0.0085)
x#13#11                                             1 	(obj:0.02482)
x#14#26                                             1 	(obj:0.04913)
x#15#33                                             1 	(obj:0.01802)
x#16#38                                             1 	(obj:0.00493)
x#17#38                                             1 	(obj:0.14501)
x#18#40                                             1 	(obj:0.07752)
x#19#11                                             1 	(obj:0.01717)
x#20#11                                             1 	(obj:0.01887)
x#21#14                                             1 	(obj:0.05389)
x#22#38                                             1 	(obj:0.03723)
x#23#40                                             1 	(obj:0.01462)
x#24#1                                              1 	(obj:0.02329)
x#25#1                                              1 	(obj:0.03128)
x#26#25                                             1 	(obj:0.01564)
x#27#22                                             1 	(obj:0.01292)
x#28#7                                              1 	(obj:0.02856)
x#29#22                                             1 	(obj:0.01224)
x#30#7                                              1 	(obj:0.02312)
x#31#1                                              1 	(obj:0.01105)
x#32#29                                             1 	(obj:0.0068)
x#33#7                                              1 	(obj:0.02261)
x#34#38                                             1 	(obj:0.02363)
x#35#28                                             1 	(obj:0.02057)
x#36#29                                             1 	(obj:0.00408)
x#37#7                                              1 	(obj:0.02448)
x#38#25                                             1 	(obj:0.02329)
x#39#38                                             1 	(obj:0.02873)
x#40#14                                             1 	(obj:0.01445)
x#41#22                                             1 	(obj:0.05763)
x#42#25                                             1 	(obj:0.04233)
x#43#7                                              1 	(obj:0.01785)
x#44#1                                              1 	(obj:0.02346)
x#45#39                                             1 	(obj:0.01904)
x#46#22                                             1 	(obj:0.01003)
x#47#11                                             1 	(obj:0.0119)
x#48#25                                             1 	(obj:0.02074)
x#49#22                                             1 	(obj:0.01751)
x#50#14                                             1 	(obj:0.01615)
x#51#39                                             1 	(obj:0.03604)
x#52#39                                             1 	(obj:0.0068)
x#53#40                                             1 	(obj:0.02363)
x#54#1                                              1 	(obj:0.11951)
x#55#7                                              1 	(obj:0.01853)
x#56#26                                             1 	(obj:0.00833)
x#57#40                                             1 	(obj:0.01445)
x#58#33                                             1 	(obj:0.07225)
x#59#40                                             1 	(obj:0.02516)
x#60#14                                             1 	(obj:0.04828)
x#61#28                                             1 	(obj:0.01649)
x#62#29                                             1 	(obj:0.00816)
x#63#25                                             1 	(obj:0.03553)
x#64#26                                             1 	(obj:0.03519)
x#65#28                                             1 	(obj:0.02465)
x#66#7                                              1 	(obj:0.0374)
x#67#26                                             1 	(obj:0.01309)
x#68#11                                             1 	(obj:0.00561)
x#69#40                                             1 	(obj:0.01598)
x#70#33                                             1 	(obj:0.00595)
x#71#28                                             1 	(obj:0.02295)
x#72#1                                              1 	(obj:0.00935)
x#73#22                                             1 	(obj:0.03094)
x#74#39                                             1 	(obj:0.09418)
x#75#14                                             1 	(obj:0.01836)
x#76#28                                             1 	(obj:0.03825)
x#77#33                                             1 	(obj:0.02601)
x#78#38                                             1 	(obj:0.01904)
x#79#25                                             1 	(obj:0.01156)
x#80#29                                             1 	(obj:0.00816)
x#81#38                                             1 	(obj:0.01122)
x#82#38                                             1 	(obj:0.01309)
x#83#14                                             1 	(obj:0.01989)
x#84#1                                              1 	(obj:0.0204)
x#85#14                                             1 	(obj:0.02652)
x#86#40                                             1 	(obj:0.04029)
x#87#7                                              1 	(obj:0.01836)
x#88#14                                             1 	(obj:0.01734)
x#89#29                                             1 	(obj:0.01632)
x#90#29                                             1 	(obj:0.03876)
x#91#29                                             1 	(obj:0.0051)
x#92#28                                             1 	(obj:0.02023)
x#93#29                                             1 	(obj:0.02176)
x#94#11                                             1 	(obj:0.0085)
x#95#26                                             1 	(obj:0.02329)
x#96#39                                             1 	(obj:0.01989)
x#97#11                                             1 	(obj:0.12784)
x#98#33                                             1 	(obj:0.02125)
x#99#26                                             1 	(obj:0.00748)
x#100#25                                            1 	(obj:0.01173)
x#101#25                                            1 	(obj:0.03468)
x#102#28                                            1 	(obj:0.04896)
x#103#25                                            1 	(obj:0.03281)
x#104#39                                            1 	(obj:0.03587)
x#105#33                                            1 	(obj:0.02805)
x#106#7                                             1 	(obj:0.01955)
x#107#26                                            1 	(obj:0.02703)
x#108#39                                            1 	(obj:0.03689)
x#109#26                                            1 	(obj:0.04471)
x#110#28                                            1 	(obj:0.04488)
x#111#40                                            1 	(obj:0.01088)
x#112#14                                            1 	(obj:0.01513)
x#113#38                                            1 	(obj:0.03451)
x#114#22                                            1 	(obj:0.00935)
x#115#22                                            1 	(obj:0.01938)
x#116#39                                            1 	(obj:0.01615)
x#117#38                                            1 	(obj:0.03485)
x#118#22                                            1 	(obj:0.0187)
x#119#25                                            1 	(obj:0.0306)
x#120#14                                            1 	(obj:0.00884)
x#121#39                                            1 	(obj:0.02805)
x#122#14                                            1 	(obj:0.00663)
x#123#39                                            1 	(obj:0.02159)
x#124#26                                            1 	(obj:0.0204)
x#125#14                                            1 	(obj:0.01853)
x#126#40                                            1 	(obj:0.02941)
x#127#22                                            1 	(obj:0.01275)
x#128#40                                            1 	(obj:0.13583)
x#129#38                                            1 	(obj:0.16728)
x#130#28                                            1 	(obj:0.01309)
x#131#1                                             1 	(obj:0.0119)
x#132#11                                            1 	(obj:0.02567)
x#133#25                                            1 	(obj:0.03111)
x#134#33                                            1 	(obj:0.01853)
x#135#28                                            1 	(obj:0.04352)
x#136#7                                             1 	(obj:0.00782)
x#137#1                                             1 	(obj:0.02584)
x#138#11                                            1 	(obj:0.02992)
x#139#11                                            1 	(obj:0.00663)
x#140#39                                            1 	(obj:0.02601)
x#141#11                                            1 	(obj:0.03519)
x#142#22                                            1 	(obj:0.00799)
x#143#29                                            1 	(obj:0.05049)
x#144#1                                             1 	(obj:0.00816)
x#145#29                                            1 	(obj:0.0544)
x#146#26                                            1 	(obj:0.01088)
x#147#33                                            1 	(obj:0.02057)
x#148#11                                            1 	(obj:0.0102)
x#149#26                                            1 	(obj:0.01241)
x#150#28                                            1 	(obj:0.04335)
